c CNF file corresponding to a (partial) station packing problem.
p cnf 6771 198
1 2 3 4 5 6 7 8 9 10 11 12 13 14 0
-1 -2 0
-1 -3 0
-1 -4 0
-1 -5 0
-1 -6 0
-1 -7 0
-1 -8 0
-1 -9 0
-1 -10 0
-1 -11 0
-1 -12 0
-1 -13 0
-1 -14 0
-2 -3 0
-2 -4 0
-2 -5 0
-2 -6 0
-2 -7 0
-2 -8 0
-2 -9 0
-2 -10 0
-2 -11 0
-2 -12 0
-2 -13 0
-2 -14 0
-3 -4 0
-3 -5 0
-3 -6 0
-3 -7 0
-3 -8 0
-3 -9 0
-3 -10 0
-3 -11 0
-3 -12 0
-3 -13 0
-3 -14 0
-4 -5 0
-4 -6 0
-4 -7 0
-4 -8 0
-4 -9 0
-4 -10 0
-4 -11 0
-4 -12 0
-4 -13 0
-4 -14 0
-5 -6 0
-5 -7 0
-5 -8 0
-5 -9 0
-5 -10 0
-5 -11 0
-5 -12 0
-5 -13 0
-5 -14 0
-6 -7 0
-6 -8 0
-6 -9 0
-6 -10 0
-6 -11 0
-6 -12 0
-6 -13 0
-6 -14 0
-7 -8 0
-7 -9 0
-7 -10 0
-7 -11 0
-7 -12 0
-7 -13 0
-7 -14 0
-8 -9 0
-8 -10 0
-8 -11 0
-8 -12 0
-8 -13 0
-8 -14 0
-9 -10 0
-9 -11 0
-9 -12 0
-9 -13 0
-9 -14 0
-10 -11 0
-10 -12 0
-10 -13 0
-10 -14 0
-11 -12 0
-11 -13 0
-11 -14 0
-12 -13 0
-12 -14 0
-13 -14 0
6757 6758 6759 6760 6761 6762 6763 6764 6765 6766 6767 6768 6769 6770 6771 0
-6757 -6758 0
-6757 -6759 0
-6757 -6760 0
-6757 -6761 0
-6757 -6762 0
-6757 -6763 0
-6757 -6764 0
-6757 -6765 0
-6757 -6766 0
-6757 -6767 0
-6757 -6768 0
-6757 -6769 0
-6757 -6770 0
-6757 -6771 0
-6758 -6759 0
-6758 -6760 0
-6758 -6761 0
-6758 -6762 0
-6758 -6763 0
-6758 -6764 0
-6758 -6765 0
-6758 -6766 0
-6758 -6767 0
-6758 -6768 0
-6758 -6769 0
-6758 -6770 0
-6758 -6771 0
-6759 -6760 0
-6759 -6761 0
-6759 -6762 0
-6759 -6763 0
-6759 -6764 0
-6759 -6765 0
-6759 -6766 0
-6759 -6767 0
-6759 -6768 0
-6759 -6769 0
-6759 -6770 0
-6759 -6771 0
-6760 -6761 0
-6760 -6762 0
-6760 -6763 0
-6760 -6764 0
-6760 -6765 0
-6760 -6766 0
-6760 -6767 0
-6760 -6768 0
-6760 -6769 0
-6760 -6770 0
-6760 -6771 0
-6761 -6762 0
-6761 -6763 0
-6761 -6764 0
-6761 -6765 0
-6761 -6766 0
-6761 -6767 0
-6761 -6768 0
-6761 -6769 0
-6761 -6770 0
-6761 -6771 0
-6762 -6763 0
-6762 -6764 0
-6762 -6765 0
-6762 -6766 0
-6762 -6767 0
-6762 -6768 0
-6762 -6769 0
-6762 -6770 0
-6762 -6771 0
-6763 -6764 0
-6763 -6765 0
-6763 -6766 0
-6763 -6767 0
-6763 -6768 0
-6763 -6769 0
-6763 -6770 0
-6763 -6771 0
-6764 -6765 0
-6764 -6766 0
-6764 -6767 0
-6764 -6768 0
-6764 -6769 0
-6764 -6770 0
-6764 -6771 0
-6765 -6766 0
-6765 -6767 0
-6765 -6768 0
-6765 -6769 0
-6765 -6770 0
-6765 -6771 0
-6766 -6767 0
-6766 -6768 0
-6766 -6769 0
-6766 -6770 0
-6766 -6771 0
-6767 -6768 0
-6767 -6769 0
-6767 -6770 0
-6767 -6771 0
-6768 -6769 0
-6768 -6770 0
-6768 -6771 0
-6769 -6770 0
-6769 -6771 0
-6770 -6771 0
